25 54
54 124 2
82 106 1
133 229 2
71 200 2
39 121 1
67 279 2
67 174 1
64 95 2
58 294 6
72 263 2
66 149 2
68 336 1
96 334 1
167 220 1
134 357 1
69 268 1
80 336 1
69 89 1
100 186 1
187 336 1
152 329 6
152 168 2
136 168 4
169 327 6
136 155 4
500 1000 
500 1000 
500 1000 
500 1000 
500 1000 
500 1000 
500 1000 
500 1000 
500 1000 
500 1000 
500 1000 
500 1000 
500 1000 
500 1000 
500 1000 
500 1000 
500 1000 
500 1000 
500 1000 
500 1000 
500 1000 
500 1000 
500 1000 
500 1000 
500 1000 
500 1000 
500 1000 
500 1000 
500 1000 
500 1000 
500 1000 
500 1000 
500 1000 
500 1000 
500 1000 
500 1000 
500 1000 
500 1000 
500 1000 
500 1000 
500 1000 
500 1000 
500 1000 
500 1000 
500 1000 
500 1000 
500 1000 
500 1000 
500 1000 
500 1000 
500 1000 
500 1000 
500 1000 
500 1000 
